Set parameter TokenServer to value "hpc-licenses.hpcc.usc.edu"
Set parameter TimeLimit to value 3600
Gurobi Optimizer version 9.5.1 build v9.5.1rc2 (linux64)
Thread count: 20 physical cores, 20 logical processors, using up to 20 threads
Optimize a model with 6007 rows, 4529 columns and 24534 nonzeros
Model fingerprint: 0xf9750c60
Variable types: 4506 continuous, 23 integer (23 binary)
Coefficient statistics:
  Matrix range     [1e+00, 1e+00]
  Objective range  [2e-03, 1e+00]
  Bounds range     [1e+00, 1e+00]
  RHS range        [1e+00, 2e+02]
Presolve removed 1520 rows and 1515 columns
Presolve time: 0.10s
Presolved: 4487 rows, 3014 columns, 21975 nonzeros
Variable types: 2994 continuous, 20 integer (20 binary)
Found heuristic solution: objective 278.8855408

Root relaxation: objective 2.899176e+02, 2864 iterations, 0.14 seconds (0.13 work units)

    Nodes    |    Current Node    |     Objective Bounds      |     Work
 Expl Unexpl |  Obj  Depth IntInf | Incumbent    BestBd   Gap | It/Node Time

     0     0  289.91761    0    2  278.88554  289.91761  3.96%     -    0s
     0     0  289.81982    0    2  278.88554  289.81982  3.92%     -    0s
H    0     0                     279.6656199  289.81982  3.63%     -    0s
     0     0  289.60418    0    2  279.66562  289.60418  3.55%     -    0s
     0     0  288.40870    0    3  279.66562  288.40870  3.13%     -    0s
     0     0  288.40870    0    3  279.66562  288.40870  3.13%     -    0s
H    0     0                     288.2987877  288.40870  0.04%     -    0s
     0     0  288.40769    0    3  288.29879  288.40769  0.04%     -    0s
     0     0  288.30918    0    2  288.29879  288.30918  0.00%     -    0s

Cutting planes:
  Gomory: 5
  MIR: 279
  RLT: 7

Explored 1 nodes (4409 simplex iterations) in 0.86 seconds (0.61 work units)
Thread count was 20 (of 20 available processors)

Solution count 3: 288.299 279.666 278.886 

Optimal solution found (tolerance 1.00e-04)
Best objective 2.882987876816e+02, best bound 2.883091847153e+02, gap 0.0036%



#########node  1
V1.6
#########node  2
0.015151515151515152,0.9848484848484849
#########node  3
1.0,0.0


Total Solving Time 1.2827708721160889
obj value 288.2987876815508
Policy Regret train (Sum) 1.2397053270686504
Best Treatment Found train (%) 86.8
treatment classification acc train (%) 18.0
Policy Regret test (Sum) 26.7565594125534
Best Treatment Found test (%) 84.76
treatment classification acc test (%) 18.09
